(declare-const a Real)
(declare-const b Real)
(declare-const c Real)
(assert (= (* a b c) 1))
(assert (> a 0))
(assert (> b 0))
(assert (> c 0))
(assert (not (<= (+ (* -230660096 (pow b 4)) (* -177969152 (pow a 4)) (* 277488 (pow (+ (* 2 a) (* 2 b)) 4)) (* -452984832 (pow a (pow 3 -1)) (pow b (/ 11 3))) (* -226492416 (pow a (/ 10 3)) (pow b (/ 2 3))) (* 1052087788017737598534418432 (pow a 3) (pow b 3) (pow (+ (* 229351424 b) (* 787718144 a)) -2))) 0)))
(check-sat)
(get-model)
(exit)